#=======================================================
# FHI-aims file: full_cover.in
# Created using the Atomic Simulation Environment (ASE)
# Fri Mar 19 22:52:44 2021
#=======================================================
lattice_vector 8.3204196499999998 0.0000000000000000 0.0000000000000000
lattice_vector 4.1602098300000003 7.2056947899999999 0.0000000000000000
lattice_vector 0.0000000000000000 0.0000000000000000 93.5871884000000023
atom 0.0000000000000000 1.6012655099999999 44.5290627999999984 Pd
constrain_relaxation .true.
atom 2.7734732200000001 1.6012655099999999 44.5290627999999984 Pd
constrain_relaxation .true.
atom 5.5469464400000001 1.6012655099999999 44.5290627999999984 Pd
constrain_relaxation .true.
atom 1.3867366100000000 4.0031637699999996 44.5290627999999984 Pd
constrain_relaxation .true.
atom 4.1602098300000003 4.0031637699999996 44.5290627999999984 Pd
constrain_relaxation .true.
atom 6.9336830500000000 4.0031637699999996 44.5290627999999984 Pd
constrain_relaxation .true.
atom 2.7734732200000001 6.4050620399999998 44.5290627999999984 Pd
constrain_relaxation .true.
atom 5.5469464400000001 6.4050620399999998 44.5290627999999984 Pd
constrain_relaxation .true.
atom 8.3204196499999998 6.4050620399999998 44.5290627999999984 Pd
constrain_relaxation .true.
atom 0.0007932300000000 0.0006007100000000 46.7903600900000001 Pd
atom 2.7742747099999998 0.0005952500000000 46.7903600699999984 Pd
atom 5.5477264799999997 0.0005977800000000 46.7903598600000024 Pd
atom 1.3875296800000001 2.4025105099999999 46.7903616700000029 Pd
atom 4.1610144399999998 2.4025080700000001 46.7903544300000007 Pd
atom 6.9344695600000001 2.4025104399999999 46.7903588699999986 Pd
atom 2.7742574300000000 4.8043892300000000 46.7903600799999992 Pd
atom 5.5477449800000000 4.8043886400000000 46.7903576499999971 Pd
atom 8.3211932300000004 4.8043882900000003 46.7903636699999979 Pd
atom 1.3891105300000000 0.8024555400000000 49.0543146400000012 Pd
atom 4.1625827800000001 0.8024546000000000 49.0542981899999972 Pd
atom 6.9360596200000000 0.8024471399999999 49.0542987899999972 Pd
atom 2.7758471100000000 3.2043518600000001 49.0542966399999969 Pd
atom 5.5493241600000003 3.2043541699999998 49.0542771300000027 Pd
atom 8.3227992900000007 3.2043475799999999 49.0542800400000019 Pd
atom 4.1625798100000004 5.6062585100000000 49.0542961499999990 Pd
atom 6.9360558799999996 5.6062591299999998 49.0542787700000034 Pd
atom 9.7095284999999993 5.6062503599999998 49.0542809900000023 Pd
atom 0.0046837500000000 1.6049598599999999 51.3370715399999966 Pd
atom 2.7781819900000002 1.6049578000000000 51.3370858700000028 Pd
atom 5.5516487300000001 1.6049752600000000 51.3370896400000021 Pd
atom 1.3914313300000001 4.0068404400000004 51.3370705299999983 Pd
atom 4.1649307000000002 4.0068400200000003 51.3370924299999984 Pd
atom 6.9383996600000000 4.0068589000000001 51.3370963300000014 Pd
atom 2.7781370299999999 6.4087292700000003 51.3370455499999991 Pd
atom 5.5516391100000000 6.4087301200000004 51.3370683799999981 Pd
atom 8.3251041200000007 6.4087477699999997 51.3370642300000029 Pd
atom 0.0069092100000000 0.0058615700000000 53.6533490400000019 Pd
atom 2.7803827200000000 0.0059276000000000 53.6534628499999968 Pd
atom 5.5539036800000003 0.0059681000000000 53.6534279600000019 Pd
atom 1.3937188700000001 2.4077271200000001 53.6534654499999988 Pd
atom 4.1671968399999999 2.4077949599999999 53.6535685799999982 Pd
atom 6.9407146800000001 2.4078364500000000 53.6535355400000000 Pd
atom 2.7805157199999999 4.8096469700000002 53.6534368399999977 Pd
atom 5.5539936100000000 4.8097131199999996 53.6535422800000035 Pd
atom 8.3275041999999999 4.8097500999999996 53.6535094700000030 Pd
atom 1.3891105300000000 0.8024555400000000 54.4757835699999973 H
atom 4.1625827800000001 0.8024546000000000 54.4757725799999974 H
atom 6.9360596200000000 0.8024471399999999 54.4757759499999992 H
atom 2.7758471100000000 3.2043518600000001 54.4757613900000024 H
atom 5.5493241600000003 3.2043541699999998 54.4756737700000002 H
atom 8.3227992900000007 3.2043475799999999 54.4756725900000021 H
atom 4.1625798100000004 5.6062585100000000 54.4756569199999987 H
atom 6.9360558799999996 5.6062591299999998 54.4756530599999991 H
atom 9.7095284999999993 5.6062503599999998 54.4755362699999992 H
atom 0.0046837500000000 1.6049598599999999 54.4757835699999973 H
atom 2.7781819900000002 1.6049578000000000 54.4757725799999974 H
atom 5.5516487300000001 1.6049752600000000 54.4757759499999992 H
atom 1.3914313300000001 4.0068404400000004 54.4757613900000024 H
atom 4.1649307000000002 4.0068400200000003 54.4756737700000002 H
atom 6.9383996600000000 4.0068589000000001 54.4756725900000021 H
atom 2.7781370299999999 6.4087292700000003 54.4756569199999987 H
atom 5.5516391100000000 6.4087301200000004 54.4756530599999991 H
atom 8.3251041200000007 6.4087477699999997 54.4755362699999992 H
